  2   0   0   0   0   0   0   0   0   0   0   0   0   0   0   0   0   0   0   0   0   0   0   0   0   0   0   0   0   0   0   0   0   0   0   0   0   0   0   0   0   0   0   0   0   0   0   0   0   0   0   0   0   0   0   0   0   0   0   0   0   0   0   0   0   0   0   0   0   0   0   0   0   0   0   0   0   0   0   0   0   0   0   0   0   0   0   0   0   0   0   0   0   0   0   0   0   0   0   0   0   0   0   0   0   0   0   0   0   0   0   0   0   0   0   0   0   0   0   0   0   0   0   0   0   0   0   0   0   0   0   0   0   0   0   0   0   0   0   0   0   0   0   0   0   0   0   0   0   0   0   0   0   0   0   0   0   0   0   0   0   0   0   0   0   0   0   0   0   0   0   0   0   0   0   0   0   0   0   0   0   0   0   0   0   0   0   0   0   0   0   0   0   0   0   0   0   0   0   0   0   0   0   0   0   0   0   0   0   0   0   0   0   0   0   0   0   0   0   0   0   0   0   0   0   0   0   0   0   0   0   0   0   0   0   0   0   0   0   0   0   0   0   0   0   0   0   0   0   0   0   0   0   0   0   0   0   0   0   0   0   0   0   0   0   0   0   0   0   0   0   0   0   0   0   0   0   0   0   0   0   0   0   0   0   0   0   0   0   0   0   0   0   0   0   0   0   0   0   0   0   0   0   0   0   0   0   0   0   0   0   0   0   0   0   0   0   0   0   0   0   0   0   0   0   0   0   0   0   0   0   0   0   0   0   0   0   0   0   0   0   0   0   0   0   0   0   0   0   0   0   0   0   0   0   0   0   0   0   0   0   0   0   0   0   0   0   0   0   0   0   0   0   0   0   0   0   0   0   0   0   0   0   0   0   0   0   0   0   0   0   0   0   0   0   0   0   0   0   0   0   0   0   0   0   0   0   0   0   0   0   0   0   0   0   0   0   0   0   0   0   0   0   0   0   0   0   0   0   0   0   0   0   0   0   0   0   0   0   0   0   0   0   0   0   0   0   0   0   0   0   0   0   0   0   0   0   0   0   0   0   0   0   0   0   0   0   0   0   0   0   0   0   0   0   0   0   0   0   0   0   0   0   0   0   0   0   0   0   0   0   0   0   0   0   0   0   0   0   0   0   0   0   0   0   0   0   0   0   0   0   0   0   0   0   0   0   0   0   0   0   0   0   0   0   0   0   0   0   0   0   0   0   0   0   0   0   0   0   0   0   0   0   0   0   0   0   0   0   0   0   0   0   0   0   0   0   0   0   0   0   0   0   0   0   0   0   0   0   0   0   0   0   0   0   0   0   0   0   0   0   0   0   0   0   0   0   0   0   0   0   0   0   0   0   0   0   0   0   0   0   0   0   0   0   0   0   0   0   0   0   0   0   0   0   0   0   0   0   0   0   0   0   0   0   0   0   0   0   0   0   0   0   0   0   0   0   0   0   0   0   0   0   0   0   0   0   0   0   0   0   0   0   0   0   0   0   0   0   0   0   0   0   0   0   0   0   0   0   0   0   0   0   0   0   0   0   0   0   0   0   0   0   0   0   0   0   0   0   0   0   0   0   0   0   0   0   0   0   0   0   0   0   0   0   0   0   0   0   0   0   0   0   0   0   0   0   0   0   0   0   0   0   0   0   0   0   0   0   0   0   0   0   0   0   0   0   0   0   0   0   0   0   0   0   0   0   0   0   0   0   0   0   0   0   0   0   0   0   0   0   0   0   0   0   0   0   0   0   0   0   0   0   0   0   0   0   0   0   0   0   0   0   0   0   0   0   0   0   0   0   0   0   0   0   0   0   0   0   0   0   0   0   0   0   0   0   0   0   0   0   0   0   0   0   0   0   0   0   0   0   0   0   0   0   0   0   0   0   0   0   0   0   0   0   0   0   0   0   0   0   0   0   0   0   0   0   0   0   0   0   0   0   0   0   0   0   0   0   0   0   0   0   0   0   0   0   0   0   0   0   0   0   0   0   0   0   0   0   0   0   0   0   0   0   0   0   0   0   0   0   0   0   0   0   0   0   0   0   0   0   0   0   0   0   0   0   0   0   0   0   0   0   0   0   0   0   0   0   0   0   0   0   0   0   0   0   0   0   0   0   0   0   0   0   0   0   0   0   0   0   0   0   0   0   0   0   0   0   0   0   0   0   0   0   0   0   0   0   0   0   0   0   0   0   0   0   0   0   0   0   0   0   0   0   0   0   0   0   0   0   0   0   0   0   0   0   0   0   0   0   0   0   0   0   0   0   0   0   0 
REMAINING SPACE:      98
ACCUMULATED PRIORITY: 200
EXECUTION TIME:       0.706105400
QTY PRI VAL
[2] 100 201
[0] 100 214
[0]  95 204
[0]  94 202
[0]  96 208
[0]  92 202
[0]  95 210
[0]  93 206
[0]  93 211
[0]  90 206
[0]  91 209
[0]  90 207
[0]  99 229
[0]  99 236
[0]  99 241
[0]  85 209
[0]  95 235
[0] 100 248
[0]  93 231
[0]  84 209
[0]  96 240
[0]  99 250
[0]  93 235
[0]  95 241
[0]  84 214
[0]  96 247
[0]  82 212
[0]  92 239
[0]  96 254
[0]  96 255
[0]  87 232
[0]  80 215
[0]  87 234
[0]  98 264
[0]  94 255
[0]  92 250
[0]  86 235
[0]  90 246
[0]  94 257
[0]  78 214
[0]  74 204
[0]  85 235
[0]  94 261
[0]  95 264
[0]  87 242
[0]  78 217
[0]  78 218
[0]  98 274
[0]  84 235
[0]  86 241
[0]  81 227
[0]  77 216
[0]  90 254
[0] 100 285
[0]  94 268
[0]  87 249
[0]  76 219
[0]  84 243
[0]  84 243
[0]  91 265
[0]  91 265
[0]  83 242
[0]  91 266
[0]  83 243
[0]  90 265
[0] 100 296
[0]  95 284
[0]  97 290
[0]  81 243
[0]  83 250
[0]  92 278
[0]  90 272
[0]  98 299
[0]  79 244
[0]  79 245
[0]  84 261
[0]  87 271
[0]  95 296
[0]  73 228
[0] 100 313
[0]  86 271
[0]  89 283
[0]  86 274
[0]  71 227
[0]  70 226
[0] 100 324
[0]  91 297
[0]  94 307
[0]  99 325
[0]  85 280
[0]  83 275
[0]  85 282
[0]  83 276
[0]  94 313
[0]  82 274
[0]  82 274
[0]  67 224
[0]  91 305
[0]  71 238
[0]  73 246
[0]  62 209
[0]  83 280
[0]  87 295
[0]  90 306
[0]  63 215
[0]  75 256
[0]  78 268
[0]  75 259
[0]  73 253
[0]  94 327
[0]  84 293
[0]  88 307
[0]  91 319
[0]  68 240
[0]  91 322
[0]  85 301
[0]  85 301
[0]  71 252
[0] 100 355
[0] 100 357
[0]  73 262
[0]  57 205
[0]  78 281
[0]  57 206
[0]  74 268
[0]  80 291
[0]  69 251
[0]  97 354
[0]  61 223
[0]  79 289
[0]  83 304
[0]  78 286
[0]  96 353
[0]  62 228
[0]  66 243
[0]  66 243
[0]  82 302
[0]  95 351
[0]  89 329
[0]  60 222
[0]  58 215
[0]  87 323
[0]  87 323
[0]  70 260
[0]  84 313
[0]  60 224
[0]  87 325
[0]  99 370
[0]  88 329
[0]  82 307
[0]  87 326
[0]  95 357
[0]  81 305
[0]  64 241
[0]  67 255
[0]  93 354
[0]  62 236
[0]  91 347
[0]  94 359
[0]  85 325
[0]  77 296
[0]  97 373
[0]  73 281
[0]  93 358
[0]  53 206
[0]  55 214
[0]  93 362
[0]  56 218
[0]  94 366
[0]  85 331
[0]  91 355
[0]  72 281
[0]  73 285
[0]  99 387
[0]  70 274
[0]  88 345
[0]  57 224
[0]  92 362
[0]  65 256
[0]  55 217
[0]  95 375
[0]  96 379
[0]  80 316
[0]  82 324
[0]  69 274
[0]  67 267
[0]  73 291
[0]  86 343
[0]  91 364
[0]  94 377
[0]  84 337
[0]  71 285
[0]  50 201
[0]  87 351
[0]  54 218
[0]  68 275
[0]  61 247
[0] 100 405
[0]  94 383
[0]  93 379
[0]  90 367
[0]  63 257
[0]  63 257
[0]  71 290
[0]  67 274
[0]  91 373
[0]  99 406
[0]  86 353
[0]  83 342
[0]  94 388
[0]  96 399
[0]  98 409
[0]  95 398
[0]  84 352
[0]  62 262
[0]  61 258
[0]  91 385
[0]  99 419
[0]  67 284
[0]  71 301
[0]  50 213
[0]  63 269
[0]  92 393
[0]  67 287
[0]  48 206
[0]  81 348
[0]  51 220
[0]  77 333
[0]  83 359
[0]  50 217
[0]  77 335
[0]  93 405
[0]  70 305
[0]  52 227
[0]  82 358
[0]  90 393
[0]  78 341
[0]  82 360
[0]  52 229
[0]  68 300
[0]  77 340
[0]  60 265
[0]  97 430
[0]  76 337
[0]  54 240
[0]  69 307
[0]  71 316
[0]  82 365
[0]  93 414
[0]  99 441
[0]  68 303
[0]  87 388
[0]  99 443
[0]  88 394
[0]  72 323
[0]  76 341
[0]  81 366
[0]  99 448
[0]  52 237
[0]  52 237
[0]  93 424
[0]  92 420
[0]  84 384
[0]  80 366
[0]  99 453
[0]  87 399
[0]  80 369
[0]  75 346
[0]  91 420
[0]  72 333
[0]  94 435
[0]  96 445
[0]  91 422
[0]  45 209
[0]  57 265
[0]  69 321
[0]  76 354
[0]  97 453
[0]  73 341
[0]  83 388
[0]  77 361
[0]  83 390
[0]  47 221
[0]  74 348
[0]  71 334
[0]  97 457
[0]  56 264
[0]  56 264
[0]  53 250
[0]  72 340
[0]  92 435
[0]  92 436
[0]  96 455
[0]  64 304
[0]  57 271
[0]  46 219
[0]  63 300
[0]  92 439
[0]  66 315
[0]  94 449
[0]  99 473
[0]  87 416
[0]  78 374
[0]  70 336
[0]  71 342
[0]  93 450
[0]  75 363
[0]  91 441
[0]  47 228
[0]  68 330
[0]  55 267
[0]  82 399
[0]  45 219
[0]  92 449
[0]  97 474
[0]  97 474
[0]  72 352
[0]  95 466
[0]  85 417
[0]  64 314
[0]  67 329
[0]  94 463
[0]  72 355
[0]  93 459
[0]  80 395
[0]  69 341
[0]  87 430
[0]  56 277
[0]  99 490
[0]  61 302
[0]  47 233
[0]  71 353
[0]  70 349
[0]  71 354
[0]  74 369
[0]  73 365
[0]  56 280
[0]  84 420
[0]  80 400
[0]  71 355
[0]  64 321
[0]  94 473
[0]  84 423
[0]  71 358
[0]  81 409
[0]  96 485
[0]  65 329
[0]  89 451
[0]  68 345
[0]  91 462
[0]  96 488
[0]  96 488
[0]  93 474
[0]  69 352
[0]  57 291
[0]  57 291
[0]  57 291
[0]  95 487
[0]  63 323
[0]  61 313
[0]  60 308
[0]  82 421
[0]  52 268
[0]  71 367
[0]  86 445
[0]  91 471
[0]  55 285
[0]  73 379
[0]  89 463
[0]  88 458
[0]  51 266
[0]  83 433
[0]  58 303
[0]  88 460
[0]  65 340
[0]  71 372
[0]  79 414
[0]  49 257
[0]  88 462
[0]  74 389
[0]  58 305
[0]  59 313
[0]  78 414
[0]  87 462
[0]  83 441
[0]  58 309
[0]  42 224
[0]  45 241
[0]  90 482
[0]  46 247
[0]  67 360
[0]  68 366
[0]  47 253
[0]  74 399
[0]  79 426
[0]  66 356
[0]  82 443
[0]  91 492
[0]  53 287
[0]  68 371
[0]  61 334
[0]  90 494
[0]  57 313
[0]  84 462
[0]  46 253
[0]  73 402
[0]  87 480
[0]  59 326
[0]  78 432
[0]  87 484
[0]  71 396
[0]  43 240
[0]  68 380
[0]  73 408
[0]  76 425
[0]  87 488
[0]  78 438
[0]  66 371
[0]  57 321
[0]  68 383
[0]  36 203
[0]  83 469
[0]  83 469
[0]  63 356
[0]  75 424
[0]  52 294
[0]  84 475
[0]  70 396
[0]  88 498
[0]  39 221
[0]  69 391
[0]  36 204
[0]  37 210
[0]  79 449
[0]  64 364
[0]  41 234
[0]  69 394
[0]  68 389
[0]  48 275
[0]  63 361
[0]  42 241
[0]  39 224
[0]  76 437
[0]  81 466
[0]  61 351
[0]  86 496
[0]  43 248
[0]  82 475
[0]  75 435
[0]  52 302
[0]  73 424
[0]  81 472
[0]  65 379
[0]  45 263
[0]  59 345
[0]  66 386
[0]  80 468
[0]  68 399
[0]  46 270
[0]  41 241
[0]  43 253
[0]  39 230
[0]  78 460
[0]  73 431
[0]  79 467
[0]  57 338
[0]  76 451
[0]  66 392
[0]  39 232
[0]  83 494
[0]  54 322
[0]  83 495
[0]  71 424
[0]  68 407
[0]  78 467
[0]  50 300
[0]  59 355
[0]  51 307
[0]  75 453
[0]  47 284
[0]  66 399
[0]  41 248
[0]  80 484
[0]  37 224
[0]  80 485
[0]  61 370
[0]  82 500
[0]  51 311
[0]  57 348
[0]  74 453
[0]  47 288
[0]  78 478
[0]  67 411
[0]  50 307
[0]  48 295
[0]  41 252
[0]  38 234
[0]  60 370
[0]  79 488
[0]  80 497
[0]  56 348
[0]  48 299
[0]  38 237
[0]  58 362
[0]  73 456
[0]  61 382
[0]  74 464
[0]  69 433
[0]  64 402
[0]  73 460
[0]  78 492
[0]  74 467
[0]  71 450
[0]  59 374
[0]  49 311
[0]  43 273
[0]  65 413
[0]  76 483
[0]  39 248
[0]  62 395
[0]  51 325
[0]  48 306
[0]  53 338
[0]  60 384
[0]  56 359
[0]  58 372
[0]  60 385
[0]  69 443
[0]  73 470
[0]  36 232
[0]  55 355
[0]  55 356
[0]  77 499
[0]  76 493
[0]  71 461
[0]  73 474
[0]  60 390
[0]  36 234
[0]  58 378
[0]  74 483
[0]  64 419
[0]  73 478
[0]  63 414
[0]  56 368
[0]  72 475
[0]  53 351
[0]  69 457
[0]  31 206
[0]  54 359
[0]  60 399
[0]  48 321
[0]  32 214
[0]  62 415
[0]  45 303
[0]  47 317
[0]  36 243
[0]  40 270
[0]  37 250
[0]  48 325
[0]  54 366
[0]  66 448
[0]  60 408
[0]  36 245
[0]  60 409
[0]  62 423
[0]  38 260
[0]  52 356
[0]  59 404
[0]  57 392
[0]  67 463
[0]  45 311
[0]  61 422
[0]  53 367
[0]  40 277
[0]  33 229
[0]  70 486
[0]  70 487
[0]  65 453
[0]  51 356
[0]  46 322
[0]  67 470
[0]  62 435
[0]  49 345
[0]  51 360
[0]  67 473
[0]  70 496
[0]  61 433
[0]  67 476
[0]  46 327
[0]  70 498
[0]  43 306
[0]  41 292
[0]  40 285
[0]  63 449
[0]  63 449
[0]  43 307
[0]  58 415
[0]  31 222
[0]  41 294
[0]  32 230
[0]  49 353
[0]  68 490
[0]  66 476
[0]  55 397
[0]  40 289
[0]  47 340
[0]  62 449
[0]  58 423
[0]  50 366
[0]  29 213
[0]  41 302
[0]  45 332
[0]  66 487
[0]  40 296
[0]  32 237
[0]  36 268
[0]  58 433
[0]  43 322
[0]  61 457
[0]  63 472
[0]  60 450
[0]  52 390
[0]  42 315
[0]  40 301
[0]  62 468
[0]  58 439
[0]  35 265
[0]  35 265
[0]  60 455
[0]  65 495
[0]  65 497
[0]  64 490
[0]  51 391
[0]  61 470
[0]  55 424
[0]  48 371
[0]  61 473
[0]  31 241
[0]  49 382
[0]  62 484
[0]  54 422
[0]  38 298
[0]  61 480
[0]  48 379
[0]  33 261
[0]  57 451
[0]  28 222
[0]  62 492
[0]  46 367
[0]  55 439
[0]  55 439
[0]  59 471
[0]  62 495
[0]  59 473
[0]  61 493
[0]  35 283
[0]  52 421
[0]  55 447
[0]  27 221
[0]  59 483
[0]  58 475
[0]  49 402
[0]  56 463
[0]  39 326
[0]  47 393
[0]  36 303
[0]  38 321
[0]  47 398
[0]  40 339
[0]  58 492
[0]  53 451
[0]  43 366
[0]  31 264
[0]  42 358
[0]  49 419
[0]  39 335
[0]  52 450
[0]  57 496
[0]  36 314
[0]  40 349
[0]  55 481
[0]  38 334
[0]  39 344
[0]  23 203
[0]  35 311
[0]  24 215
[0]  25 224
[0]  54 485
[0]  33 297
[0]  45 406
[0]  50 452
[0]  46 416
[0]  52 472
[0]  45 411
[0]  34 311
[0]  53 488
[0]  52 481
[0]  47 435
[0]  22 204
[0]  35 325
[0]  34 316
[0]  47 438
[0]  26 243
[0]  51 477
[0]  34 319
[0]  27 254
[0]  40 377
[0]  34 321
[0]  44 416
[0]  48 454
[0]  36 341
[0]  42 398
[0]  23 218
[0]  48 455
[0]  30 286
[0]  46 442
[0]  34 327
[0]  24 231
[0]  41 395
[0]  31 299
[0]  38 367
[0]  33 319
[0]  41 397
[0]  31 301
[0]  21 204
[0]  44 428
[0]  41 399
[0]  31 302
[0]  46 449
[0]  30 293
[0]  33 325
[0]  33 328
[0]  37 370
[0]  39 390
[0]  29 291
[0]  49 493
[0]  29 293
[0]  37 376
[0]  42 427
[0]  38 388
[0]  44 450
[0]  43 440
[0]  46 472
[0]  38 390
[0]  41 422
[0]  34 350
[0]  34 350
[0]  44 453
[0]  42 436
[0]  48 500
[0]  43 450
[0]  42 440
[0]  24 252
[0]  47 494
[0]  38 401
[0]  27 285
[0]  47 497
[0]  27 286
[0]  23 245
[0]  32 343
[0]  25 269
[0]  42 453
[0]  44 476
[0]  35 380
[0]  22 239
[0]  40 435
[0]  30 327
[0]  43 469
[0]  24 262
[0]  36 393
[0]  38 415
[0]  43 471
[0]  22 241
[0]  35 385
[0]  39 429
[0]  22 243
[0]  37 409
[0]  29 323
[0]  33 368
[0]  29 325
[0]  32 359
[0]  39 438
[0]  39 439
[0]  38 430
[0]  25 283
[0]  18 205
[0]  42 479
[0]  41 470
[0]  34 391
[0]  27 312
[0]  31 360
[0]  36 422
[0]  22 258
[0]  37 435
[0]  23 271
[0]  20 237
[0]  30 356
[0]  42 500
[0]  38 453
[0]  40 480
[0]  31 374
[0]  29 351
[0]  38 470
[0]  31 384
[0]  36 446
[0]  39 487
[0]  32 402
[0]  34 429
[0]  16 202
[0]  31 394
[0]  33 421
[0]  27 348
[0]  29 374
[0]  37 479
[0]  21 273
[0]  38 495
[0]  32 420
[0]  19 251
[0]  17 227
[0]  35 468
[0]  35 470
[0]  17 229
[0]  27 365
[0]  19 257
[0]  24 326
[0]  22 301
[0]  28 385
[0]  30 413
[0]  18 249
[0]  25 347
[0]  19 264
[0]  30 417
[0]  15 209
[0]  33 462
[0]  22 309
[0]  19 267
[0]  31 441
[0]  21 299
[0]  23 328
[0]  29 414
[0]  32 458
[0]  27 387
[0]  14 201
[0]  14 203
[0]  24 349
[0]  23 336
[0]  34 498
[0]  30 440
[0]  30 440
[0]  19 281
[0]  15 222
[0]  26 385
[0]  19 282
[0]  15 223
[0]  33 493
[0]  30 451
[0]  17 256
[0]  33 498
[0]  32 484
[0]  17 259
[0]  27 417
[0]  23 358
[0]  26 406
[0]  21 329
[0]  20 314
[0]  25 396
[0]  24 385
[0]  17 276
[0]  21 342
[0]  24 393
[0]  17 279
[0]  18 298
[0]  26 431
[0]  27 449
[0]  23 384
[0]  26 435
[0]  16 270
[0]  27 459
[0]  16 273
[0]  20 342
[0]  23 394
[0]  27 463
[0]  29 498
[0]  23 396
[0]  25 431
[0]  20 345
[0]  28 486
[0]  17 296
[0]  14 245
[0]  21 368
[0]  17 303
[0]  13 234
[0]  27 486
[0]  19 351
[0]  16 297
[0]  14 260
[0]  12 224
[0]  16 301
[0]  12 226
[0]  14 271
[0]  16 310
[0]  20 388
[0]  12 233
[0]  11 214
[0]  15 292
[0]  14 273
[0]  14 274
[0]  25 492
[0]  13 256
[0]  20 401
[0]  11 221
[0]  22 444
[0]  22 445
[0]  18 367
[0]  10 206
[0]  15 311
[0]  18 376
[0]  22 461
[0]  23 484
[0]  13 279
[0]  22 477
[0]  20 436
[0]  22 483
[0]  22 484
[0]  14 308
[0]  21 464
[0]  13 290
[0]  15 335
[0]  21 471
[0]  10 226
[0]  20 454
[0]  17 387
[0]  11 253
[0]  14 325
[0]  17 395
[0]  13 305
[0]  19 448
[0]  18 428
[0]  16 381
[0]  13 310
[0]  19 456
[0]  16 391
[0]  14 344
[0]  14 344
[0]  17 422
[0]  10 249
[0]  17 426
[0]  19 479
[0]  16 405
[0]  14 355
[0]  16 410
[0]  17 438
[0]  17 440
[0]  19 493
[0]  12 313
[0]  10 261
[0]  19 496
[0]  12 316
[0]  18 475
[0]  15 405
[0]  18 490
[0]  13 355
[0]  11 301
[0]  13 361
[0]  15 423
[0]  14 418
[0]  10 303
[0]  16 488
[0]  14 432
[0]  13 403
[0]  13 411
[0]  10 319
[0]  13 418
[0]  10 322
[0]  12 388
[0]  15 488
[0]  11 363
[0]  11 363
[0]  11 374
[0]  14 479
[0]  12 413
[0]  14 483
[0]  12 429
[0]  12 446
[0]  11 415
[0]  10 378
[0]  13 496
[0]  10 383
[0]  12 479
[0]  11 447
[0]  10 411
[0]  11 454
[0]  11 455
[0]  11 467
[0]  10 437
[0]  11 488
[0]  11 489
[0]  10 447
[0]  10 477
[0]  10 500
